
Gurobi 8.1.0 (win64, Python) logging started 12/11/18 18:44:09

Academic license - for non-commercial use only

Gurobi 8.1.0 (win64, Python) logging started 12/11/18 18:46:00

Academic license - for non-commercial use only

Gurobi 8.1.0 (win64, Python) logging started 12/11/18 18:54:20

Academic license - for non-commercial use only

Gurobi 8.1.0 (win64, Python) logging started 12/11/18 19:36:12

Academic license - for non-commercial use only

Gurobi 8.1.0 (win64, Python) logging started 12/11/18 19:37:59

Academic license - for non-commercial use only

Gurobi 8.1.0 (win64, Python) logging started 12/11/18 19:42:05

Academic license - for non-commercial use only

Gurobi 8.1.0 (win64, Python) logging started 12/11/18 19:42:41

Academic license - for non-commercial use only

Gurobi 8.1.0 (win64, Python) logging started 12/11/18 20:58:44

Academic license - for non-commercial use only

Gurobi 8.1.0 (win64, Python) logging started 12/11/18 21:03:41

Academic license - for non-commercial use only

Gurobi 8.1.0 (win64, Python) logging started 12/11/18 21:23:35

Academic license - for non-commercial use only

Gurobi 8.1.0 (win64, Python) logging started 12/11/18 21:51:00

Academic license - for non-commercial use only

Gurobi 8.1.0 (win64, Python) logging started 12/11/18 21:59:59

Academic license - for non-commercial use only

Gurobi 8.1.0 (win64, Python) logging started 12/11/18 22:04:45

Academic license - for non-commercial use only

Gurobi 8.1.0 (win64, Python) logging started 12/12/18 10:26:25

Academic license - for non-commercial use only

Gurobi 8.1.0 (win64, Python) logging started 12/12/18 10:29:39

Academic license - for non-commercial use only

Gurobi 8.1.0 (win64, Python) logging started 12/17/18 18:51:57

Academic license - for non-commercial use only

Gurobi 8.1.0 (win64, Python) logging started 12/17/18 19:03:09

Academic license - for non-commercial use only

Gurobi 8.1.0 (win64, Python) logging started 12/17/18 19:18:57

Academic license - for non-commercial use only

Gurobi 8.1.0 (win64, Python) logging started 12/18/18 17:17:57

Academic license - for non-commercial use only

Gurobi 8.1.0 (win64, Python) logging started 12/18/18 17:19:39

Academic license - for non-commercial use only

Gurobi 8.1.0 (win64, Python) logging started 12/18/18 17:20:50

Academic license - for non-commercial use only

Gurobi 8.1.0 (win64, Python) logging started 03/25/19 11:30:11

Academic license - for non-commercial use only

Gurobi 8.1.0 (win64, Python) logging started 04/07/19 13:55:14

Academic license - for non-commercial use only

Gurobi 8.1.0 (win64, Python) logging started 05/07/19 12:57:01

Academic license - for non-commercial use only

Gurobi 8.1.0 (win64, Python) logging started 05/07/19 20:42:13

Academic license - for non-commercial use only

Gurobi 8.1.0 (win64, Python) logging started 05/07/19 20:43:50

Academic license - for non-commercial use only

Gurobi 8.1.0 (win64, Python) logging started 05/07/19 20:46:09

Academic license - for non-commercial use only

Gurobi 8.1.0 (win64, Python) logging started 05/07/19 20:52:10

Academic license - for non-commercial use only

Gurobi 8.1.0 (win64, Python) logging started 05/07/19 20:55:14

Academic license - for non-commercial use only

Gurobi 8.1.0 (win64, Python) logging started 05/07/19 20:56:23

Academic license - for non-commercial use only

Gurobi 8.1.0 (win64, Python) logging started 05/07/19 20:58:03

Academic license - for non-commercial use only

Gurobi 8.1.0 (win64, Python) logging started 05/07/19 20:59:25

Academic license - for non-commercial use only

Gurobi 8.1.0 (win64, Python) logging started 05/07/19 21:01:47

Academic license - for non-commercial use only

Gurobi 8.1.0 (win64, Python) logging started 05/08/19 11:35:25

Academic license - for non-commercial use only

Gurobi 8.1.0 (win64, Python) logging started 05/08/19 13:05:21

Academic license - for non-commercial use only

Gurobi 8.1.0 (win64, Python) logging started 05/08/19 13:11:36

Academic license - for non-commercial use only

Gurobi 8.1.0 (win64, Python) logging started 05/08/19 13:14:44

Academic license - for non-commercial use only

Gurobi 8.1.0 (win64, Python) logging started 05/10/19 15:31:52

Academic license - for non-commercial use only

Gurobi 8.1.0 (win64, Python) logging started 05/10/19 15:45:30

Academic license - for non-commercial use only

Gurobi 8.1.0 (win64, Python) logging started 05/10/19 16:02:26

Academic license - for non-commercial use only
